1548
7 28 99 68 39 46 63 43 42 1 88 16 97 92 80 52 44 74 83 53 50 37 60 30 81 14 33 71 6 78 75 57 69 15 27 35 66 90 79 77 31 87 93 47 22 24 54 94 19 82 17 34 76 38 64 65 36 3 45 86 59 12 20 29 72 89 26 61 85 62 8 9 58 5 48 51 56 25 98 40 18 10 32 2 91 55 23 73 13 70 11 84 41 96 4 49 67 95 21 
